data/lp_files/q3/53_4.lp
\ Model foo
\ LP format - for model browsing. Use MPS format to capture full model detail.
Minimize
  z
Subject To
 allocateEach[1]: x[1,1] + x[2,1] + x[3,1] = 1
 allocateEach[2]: x[1,2] + x[2,2] + x[3,2] = 1
 allocateEach[3]: x[1,3] + x[2,3] + x[3,3] = 1
 allocateEach[4]: x[1,4] + x[2,4] + x[3,4] = 1
 allocateEach[5]: x[1,5] + x[2,5] + x[3,5] = 1
 allocateEach[6]: x[1,6] + x[2,6] + x[3,6] = 1
 allocateEach[7]: x[1,7] + x[2,7] + x[3,7] = 1
 allocateEach[8]: x[1,8] + x[2,8] + x[3,8] = 1
 allocateEach[9]: x[1,9] + x[2,9] + x[3,9] = 1
 allocateEach[10]: x[1,10] + x[2,10] + x[3,10] = 1
 allocateEach[11]: x[1,11] + x[2,11] + x[3,11] = 1
 allocateEach[12]: x[1,12] + x[2,12] + x[3,12] = 1
 allocateEach[13]: x[1,13] + x[2,13] + x[3,13] = 1
 allocateAllCash: cashProportion[1] + cashProportion[2] + cashProportion[3]
   = 1
 findWorstP[1,2]: z + 0.0324018870859039 cashProportion[1]
   - 0.0324018870859039 cashProportion[2] + 0.0819508528176681 x[1,1]
   + 0.0844782 x[1,2] + 0.027852662139043 x[1,3]
   + 0.1051117217066722 x[1,4] + 0.069975115350718 x[1,5]
   + 0.016667530716989 x[1,6] + 0.1080667738089066 x[1,7]
   + 0.1013531028047074 x[1,8] + 0.0687827259059568 x[1,9]
   + 0.1071724817253357 x[1,10] + 0.00456218570169527 x[1,11]
   + 0.1229586811135881 x[1,12] + 0.0686660791124475 x[1,13]
   - 0.0819508528176681 x[2,1] - 0.0844782 x[2,2]
   - 0.027852662139043 x[2,3] - 0.1051117217066722 x[2,4]
   - 0.069975115350718 x[2,5] - 0.016667530716989 x[2,6]
   - 0.1080667738089066 x[2,7] - 0.1013531028047074 x[2,8]
   - 0.0687827259059568 x[2,9] - 0.1071724817253357 x[2,10]
   - 0.00456218570169527 x[2,11] - 0.1229586811135881 x[2,12]
   - 0.0686660791124475 x[2,13] >= 0
 findWorstP[1,3]: z + 0.0324018870859039 cashProportion[1]
   - 0.0324018870859039 cashProportion[3] + 0.0819508528176681 x[1,1]
   + 0.0844782 x[1,2] + 0.027852662139043 x[1,3]
   + 0.1051117217066722 x[1,4] + 0.069975115350718 x[1,5]
   + 0.016667530716989 x[1,6] + 0.1080667738089066 x[1,7]
   + 0.1013531028047074 x[1,8] + 0.0687827259059568 x[1,9]
   + 0.1071724817253357 x[1,10] + 0.00456218570169527 x[1,11]
   + 0.1229586811135881 x[1,12] + 0.0686660791124475 x[1,13]
   - 0.0819508528176681 x[3,1] - 0.0844782 x[3,2]
   - 0.027852662139043 x[3,3] - 0.1051117217066722 x[3,4]
   - 0.069975115350718 x[3,5] - 0.016667530716989 x[3,6]
   - 0.1080667738089066 x[3,7] - 0.1013531028047074 x[3,8]
   - 0.0687827259059568 x[3,9] - 0.1071724817253357 x[3,10]
   - 0.00456218570169527 x[3,11] - 0.1229586811135881 x[3,12]
   - 0.0686660791124475 x[3,13] >= 0
 findWorstP[2,1]: z - 0.0425003825034425 cashProportion[1]
   + 0.0425003825034425 cashProportion[2] - 0.1089369804328239 x[1,1]
   - 0.1390272512452612 x[1,2] - 0.0145011305101746 x[1,3]
   - 0.0345953113578022 x[1,4] - 0.1312241810176291 x[1,5]
   - 0.092752834775513 x[1,6] - 0.0383863454771093 x[1,7]
   - 0.023222208999881 x[1,8] - 0.0791697125274127 x[1,9]
   - 0.0759056831511484 x[1,10] - 0.0718426465838192 x[1,11]
   - 0.0987028883259949 x[1,12] - 0.0492324430919878 x[1,13]
   + 0.1089369804328239 x[2,1] + 0.1390272512452612 x[2,2]
   + 0.0145011305101746 x[2,3] + 0.0345953113578022 x[2,4]
   + 0.1312241810176291 x[2,5] + 0.092752834775513 x[2,6]
   + 0.0383863454771093 x[2,7] + 0.023222208999881 x[2,8]
   + 0.0791697125274127 x[2,9] + 0.0759056831511484 x[2,10]
   + 0.0718426465838192 x[2,11] + 0.0987028883259949 x[2,12]
   + 0.0492324430919878 x[2,13] >= 0
 findWorstP[2,3]: z + 0.0425003825034425 cashProportion[2]
   - 0.0425003825034425 cashProportion[3] + 0.1089369804328239 x[2,1]
   + 0.1390272512452612 x[2,2] + 0.0145011305101746 x[2,3]
   + 0.0345953113578022 x[2,4] + 0.1312241810176291 x[2,5]
   + 0.092752834775513 x[2,6] + 0.0383863454771093 x[2,7]
   + 0.023222208999881 x[2,8] + 0.0791697125274127 x[2,9]
   + 0.0759056831511484 x[2,10] + 0.0718426465838192 x[2,11]
   + 0.0987028883259949 x[2,12] + 0.0492324430919878 x[2,13]
   - 0.1089369804328239 x[3,1] - 0.1390272512452612 x[3,2]
   - 0.0145011305101746 x[3,3] - 0.0345953113578022 x[3,4]
   - 0.1312241810176291 x[3,5] - 0.092752834775513 x[3,6]
   - 0.0383863454771093 x[3,7] - 0.023222208999881 x[3,8]
   - 0.0791697125274127 x[3,9] - 0.0759056831511484 x[3,10]
   - 0.0718426465838192 x[3,11] - 0.0987028883259949 x[3,12]
   - 0.0492324430919878 x[3,13] >= 0
 findWorstP[3,1]: z - 0.044048982468505 cashProportion[1]
   + 0.044048982468505 cashProportion[3] - 0.0540392916923619 x[1,1]
   - 0.0470266936833759 x[1,2] - 0.1518104131794555 x[1,3]
   - 0.0429037089243238 x[1,4] - 0.042692273808475 x[1,5]
   - 0.000387631 x[1,6] - 0.1631750506563298 x[1,7]
   - 0.042604175843538 x[1,8] - 0.0311866795877015 x[1,9]
   - 0.1683728305876134 x[1,10] - 0.0391507356180072 x[1,11]
   - 0.0858778962205973 x[1,12] - 0.0867236366839926 x[1,13]
   + 0.0540392916923619 x[3,1] + 0.0470266936833759 x[3,2]
   + 0.1518104131794555 x[3,3] + 0.0429037089243238 x[3,4]
   + 0.042692273808475 x[3,5] + 0.000387631 x[3,6]
   + 0.1631750506563298 x[3,7] + 0.042604175843538 x[3,8]
   + 0.0311866795877015 x[3,9] + 0.1683728305876134 x[3,10]
   + 0.0391507356180072 x[3,11] + 0.0858778962205973 x[3,12]
   + 0.0867236366839926 x[3,13] >= 0
 findWorstP[3,2]: z - 0.044048982468505 cashProportion[2]
   + 0.044048982468505 cashProportion[3] - 0.0540392916923619 x[2,1]
   - 0.0470266936833759 x[2,2] - 0.1518104131794555 x[2,3]
   - 0.0429037089243238 x[2,4] - 0.042692273808475 x[2,5]
   - 0.000387631 x[2,6] - 0.1631750506563298 x[2,7]
   - 0.042604175843538 x[2,8] - 0.0311866795877015 x[2,9]
   - 0.1683728305876134 x[2,10] - 0.0391507356180072 x[2,11]
   - 0.0858778962205973 x[2,12] - 0.0867236366839926 x[2,13]
   + 0.0540392916923619 x[3,1] + 0.0470266936833759 x[3,2]
   + 0.1518104131794555 x[3,3] + 0.0429037089243238 x[3,4]
   + 0.042692273808475 x[3,5] + 0.000387631 x[3,6]
   + 0.1631750506563298 x[3,7] + 0.042604175843538 x[3,8]
   + 0.0311866795877015 x[3,9] + 0.1683728305876134 x[3,10]
   + 0.0391507356180072 x[3,11] + 0.0858778962205973 x[3,12]
   + 0.0867236366839926 x[3,13] >= 0
Bounds
 z <= 1
 -infinity <= cashProportion[1] <= 1
 -infinity <= cashProportion[2] <= 1
 -infinity <= cashProportion[3] <= 1
Binaries
 x[1,1] x[1,2] x[1,3] x[1,4] x[1,5] x[1,6] x[1,7] x[1,8] x[1,9] x[1,10]
 x[1,11] x[1,12] x[1,13] x[2,1] x[2,2] x[2,3] x[2,4] x[2,5] x[2,6] x[2,7]
 x[2,8] x[2,9] x[2,10] x[2,11] x[2,12] x[2,13] x[3,1] x[3,2] x[3,3] x[3,4]
 x[3,5] x[3,6] x[3,7] x[3,8] x[3,9] x[3,10] x[3,11] x[3,12] x[3,13]
End
