data/mps_files/q3/53_4.mps
NAME foo
ROWS
 N  OBJ
 E  allocateEach[1]
 E  allocateEach[2]
 E  allocateEach[3]
 E  allocateEach[4]
 E  allocateEach[5]
 E  allocateEach[6]
 E  allocateEach[7]
 E  allocateEach[8]
 E  allocateEach[9]
 E  allocateEach[10]
 E  allocateEach[11]
 E  allocateEach[12]
 E  allocateEach[13]
 E  allocateAllCash
 G  findWorstP[1,2]
 G  findWorstP[1,3]
 G  findWorstP[2,1]
 G  findWorstP[2,3]
 G  findWorstP[3,1]
 G  findWorstP[3,2]
COLUMNS
    z         OBJ       1
    z         findWorstP[1,2]  1
    z         findWorstP[1,3]  1
    z         findWorstP[2,1]  1
    z         findWorstP[2,3]  1
    z         findWorstP[3,1]  1
    z         findWorstP[3,2]  1
    cashProportion[1]  allocateAllCash  1
    cashProportion[1]  findWorstP[1,2]  3.2401887085903885e-02
    cashProportion[1]  findWorstP[1,3]  3.2401887085903885e-02
    cashProportion[1]  findWorstP[2,1]  -4.2500382503442527e-02
    cashProportion[1]  findWorstP[3,1]  -4.4048982468504971e-02
    cashProportion[2]  allocateAllCash  1
    cashProportion[2]  findWorstP[1,2]  -3.2401887085903885e-02
    cashProportion[2]  findWorstP[2,1]  4.2500382503442527e-02
    cashProportion[2]  findWorstP[2,3]  4.2500382503442527e-02
    cashProportion[2]  findWorstP[3,2]  -4.4048982468504971e-02
    cashProportion[3]  allocateAllCash  1
    cashProportion[3]  findWorstP[1,3]  -3.2401887085903885e-02
    cashProportion[3]  findWorstP[2,3]  -4.2500382503442527e-02
    cashProportion[3]  findWorstP[3,1]  4.4048982468504971e-02
    cashProportion[3]  findWorstP[3,2]  4.4048982468504971e-02
    MARKER    'MARKER'                 'INTORG'
    x[1,1]    allocateEach[1]  1
    x[1,1]    findWorstP[1,2]  0.0819508528176681
    x[1,1]    findWorstP[1,3]  0.0819508528176681
    x[1,1]    findWorstP[2,1]  -1.0893698043282389e-01
    x[1,1]    findWorstP[3,1]  -5.4039291692361893e-02
    x[1,2]    allocateEach[2]  1
    x[1,2]    findWorstP[1,2]  8.4478200010368612e-02
    x[1,2]    findWorstP[1,3]  8.4478200010368612e-02
    x[1,2]    findWorstP[2,1]  -1.3902725124526119e-01
    x[1,2]    findWorstP[3,1]  -4.7026693683375913e-02
    x[1,3]    allocateEach[3]  1
    x[1,3]    findWorstP[1,2]  2.7852662139042982e-02
    x[1,3]    findWorstP[1,3]  2.7852662139042982e-02
    x[1,3]    findWorstP[2,1]  -1.4501130510174591e-02
    x[1,3]    findWorstP[3,1]  -1.5181041317945554e-01
    x[1,4]    allocateEach[4]  1
    x[1,4]    findWorstP[1,2]  1.0511172170667221e-01
    x[1,4]    findWorstP[1,3]  1.0511172170667221e-01
    x[1,4]    findWorstP[2,1]  -3.4595311357802215e-02
    x[1,4]    findWorstP[3,1]  -4.2903708924323838e-02
    x[1,5]    allocateEach[5]  1
    x[1,5]    findWorstP[1,2]  6.9975115350718042e-02
    x[1,5]    findWorstP[1,3]  6.9975115350718042e-02
    x[1,5]    findWorstP[2,1]  -1.3122418101762914e-01
    x[1,5]    findWorstP[3,1]  -4.2692273808475019e-02
    x[1,6]    allocateEach[6]  1
    x[1,6]    findWorstP[1,2]  1.6667530716988958e-02
    x[1,6]    findWorstP[1,3]  1.6667530716988958e-02
    x[1,6]    findWorstP[2,1]  -9.2752834775512966e-02
    x[1,6]    findWorstP[3,1]  -3.8763104572284379e-04
    x[1,7]    allocateEach[7]  1
    x[1,7]    findWorstP[1,2]  1.0806677380890664e-01
    x[1,7]    findWorstP[1,3]  1.0806677380890664e-01
    x[1,7]    findWorstP[2,1]  -3.8386345477109292e-02
    x[1,7]    findWorstP[3,1]  -1.6317505065632981e-01
    x[1,8]    allocateEach[8]  1
    x[1,8]    findWorstP[1,2]  1.0135310280470736e-01
    x[1,8]    findWorstP[1,3]  1.0135310280470736e-01
    x[1,8]    findWorstP[2,1]  -2.3222208999880995e-02
    x[1,8]    findWorstP[3,1]  -4.2604175843538004e-02
    x[1,9]    allocateEach[9]  1
    x[1,9]    findWorstP[1,2]  6.8782725905956757e-02
    x[1,9]    findWorstP[1,3]  6.8782725905956757e-02
    x[1,9]    findWorstP[2,1]  -7.9169712527412742e-02
    x[1,9]    findWorstP[3,1]  -3.1186679587701518e-02
    x[1,10]   allocateEach[10]  1
    x[1,10]   findWorstP[1,2]  1.0717248172533569e-01
    x[1,10]   findWorstP[1,3]  1.0717248172533569e-01
    x[1,10]   findWorstP[2,1]  -7.5905683151148359e-02
    x[1,10]   findWorstP[3,1]  -1.6837283058761340e-01
    x[1,11]   allocateEach[11]  1
    x[1,11]   findWorstP[1,2]  4.5621857016952677e-03
    x[1,11]   findWorstP[1,3]  4.5621857016952677e-03
    x[1,11]   findWorstP[2,1]  -7.1842646583819239e-02
    x[1,11]   findWorstP[3,1]  -3.9150735618007221e-02
    x[1,12]   allocateEach[12]  1
    x[1,12]   findWorstP[1,2]  1.2295868111358807e-01
    x[1,12]   findWorstP[1,3]  1.2295868111358807e-01
    x[1,12]   findWorstP[2,1]  -9.8702888325994928e-02
    x[1,12]   findWorstP[3,1]  -8.5877896220597286e-02
    x[1,13]   allocateEach[13]  1
    x[1,13]   findWorstP[1,2]  6.8666079112447514e-02
    x[1,13]   findWorstP[1,3]  6.8666079112447514e-02
    x[1,13]   findWorstP[2,1]  -4.9232443091987828e-02
    x[1,13]   findWorstP[3,1]  -8.6723636683992592e-02
    x[2,1]    allocateEach[1]  1
    x[2,1]    findWorstP[1,2]  -0.0819508528176681
    x[2,1]    findWorstP[2,1]  1.0893698043282389e-01
    x[2,1]    findWorstP[2,3]  1.0893698043282389e-01
    x[2,1]    findWorstP[3,2]  -5.4039291692361893e-02
    x[2,2]    allocateEach[2]  1
    x[2,2]    findWorstP[1,2]  -8.4478200010368612e-02
    x[2,2]    findWorstP[2,1]  1.3902725124526119e-01
    x[2,2]    findWorstP[2,3]  1.3902725124526119e-01
    x[2,2]    findWorstP[3,2]  -4.7026693683375913e-02
    x[2,3]    allocateEach[3]  1
    x[2,3]    findWorstP[1,2]  -2.7852662139042982e-02
    x[2,3]    findWorstP[2,1]  1.4501130510174591e-02
    x[2,3]    findWorstP[2,3]  1.4501130510174591e-02
    x[2,3]    findWorstP[3,2]  -1.5181041317945554e-01
    x[2,4]    allocateEach[4]  1
    x[2,4]    findWorstP[1,2]  -1.0511172170667221e-01
    x[2,4]    findWorstP[2,1]  3.4595311357802215e-02
    x[2,4]    findWorstP[2,3]  3.4595311357802215e-02
    x[2,4]    findWorstP[3,2]  -4.2903708924323838e-02
    x[2,5]    allocateEach[5]  1
    x[2,5]    findWorstP[1,2]  -6.9975115350718042e-02
    x[2,5]    findWorstP[2,1]  1.3122418101762914e-01
    x[2,5]    findWorstP[2,3]  1.3122418101762914e-01
    x[2,5]    findWorstP[3,2]  -4.2692273808475019e-02
    x[2,6]    allocateEach[6]  1
    x[2,6]    findWorstP[1,2]  -1.6667530716988958e-02
    x[2,6]    findWorstP[2,1]  9.2752834775512966e-02
    x[2,6]    findWorstP[2,3]  9.2752834775512966e-02
    x[2,6]    findWorstP[3,2]  -3.8763104572284379e-04
    x[2,7]    allocateEach[7]  1
    x[2,7]    findWorstP[1,2]  -1.0806677380890664e-01
    x[2,7]    findWorstP[2,1]  3.8386345477109292e-02
    x[2,7]    findWorstP[2,3]  3.8386345477109292e-02
    x[2,7]    findWorstP[3,2]  -1.6317505065632981e-01
    x[2,8]    allocateEach[8]  1
    x[2,8]    findWorstP[1,2]  -1.0135310280470736e-01
    x[2,8]    findWorstP[2,1]  2.3222208999880995e-02
    x[2,8]    findWorstP[2,3]  2.3222208999880995e-02
    x[2,8]    findWorstP[3,2]  -4.2604175843538004e-02
    x[2,9]    allocateEach[9]  1
    x[2,9]    findWorstP[1,2]  -6.8782725905956757e-02
    x[2,9]    findWorstP[2,1]  7.9169712527412742e-02
    x[2,9]    findWorstP[2,3]  7.9169712527412742e-02
    x[2,9]    findWorstP[3,2]  -3.1186679587701518e-02
    x[2,10]   allocateEach[10]  1
    x[2,10]   findWorstP[1,2]  -1.0717248172533569e-01
    x[2,10]   findWorstP[2,1]  7.5905683151148359e-02
    x[2,10]   findWorstP[2,3]  7.5905683151148359e-02
    x[2,10]   findWorstP[3,2]  -1.6837283058761340e-01
    x[2,11]   allocateEach[11]  1
    x[2,11]   findWorstP[1,2]  -4.5621857016952677e-03
    x[2,11]   findWorstP[2,1]  7.1842646583819239e-02
    x[2,11]   findWorstP[2,3]  7.1842646583819239e-02
    x[2,11]   findWorstP[3,2]  -3.9150735618007221e-02
    x[2,12]   allocateEach[12]  1
    x[2,12]   findWorstP[1,2]  -1.2295868111358807e-01
    x[2,12]   findWorstP[2,1]  9.8702888325994928e-02
    x[2,12]   findWorstP[2,3]  9.8702888325994928e-02
    x[2,12]   findWorstP[3,2]  -8.5877896220597286e-02
    x[2,13]   allocateEach[13]  1
    x[2,13]   findWorstP[1,2]  -6.8666079112447514e-02
    x[2,13]   findWorstP[2,1]  4.9232443091987828e-02
    x[2,13]   findWorstP[2,3]  4.9232443091987828e-02
    x[2,13]   findWorstP[3,2]  -8.6723636683992592e-02
    x[3,1]    allocateEach[1]  1
    x[3,1]    findWorstP[1,3]  -0.0819508528176681
    x[3,1]    findWorstP[2,3]  -1.0893698043282389e-01
    x[3,1]    findWorstP[3,1]  5.4039291692361893e-02
    x[3,1]    findWorstP[3,2]  5.4039291692361893e-02
    x[3,2]    allocateEach[2]  1
    x[3,2]    findWorstP[1,3]  -8.4478200010368612e-02
    x[3,2]    findWorstP[2,3]  -1.3902725124526119e-01
    x[3,2]    findWorstP[3,1]  4.7026693683375913e-02
    x[3,2]    findWorstP[3,2]  4.7026693683375913e-02
    x[3,3]    allocateEach[3]  1
    x[3,3]    findWorstP[1,3]  -2.7852662139042982e-02
    x[3,3]    findWorstP[2,3]  -1.4501130510174591e-02
    x[3,3]    findWorstP[3,1]  1.5181041317945554e-01
    x[3,3]    findWorstP[3,2]  1.5181041317945554e-01
    x[3,4]    allocateEach[4]  1
    x[3,4]    findWorstP[1,3]  -1.0511172170667221e-01
    x[3,4]    findWorstP[2,3]  -3.4595311357802215e-02
    x[3,4]    findWorstP[3,1]  4.2903708924323838e-02
    x[3,4]    findWorstP[3,2]  4.2903708924323838e-02
    x[3,5]    allocateEach[5]  1
    x[3,5]    findWorstP[1,3]  -6.9975115350718042e-02
    x[3,5]    findWorstP[2,3]  -1.3122418101762914e-01
    x[3,5]    findWorstP[3,1]  4.2692273808475019e-02
    x[3,5]    findWorstP[3,2]  4.2692273808475019e-02
    x[3,6]    allocateEach[6]  1
    x[3,6]    findWorstP[1,3]  -1.6667530716988958e-02
    x[3,6]    findWorstP[2,3]  -9.2752834775512966e-02
    x[3,6]    findWorstP[3,1]  3.8763104572284379e-04
    x[3,6]    findWorstP[3,2]  3.8763104572284379e-04
    x[3,7]    allocateEach[7]  1
    x[3,7]    findWorstP[1,3]  -1.0806677380890664e-01
    x[3,7]    findWorstP[2,3]  -3.8386345477109292e-02
    x[3,7]    findWorstP[3,1]  1.6317505065632981e-01
    x[3,7]    findWorstP[3,2]  1.6317505065632981e-01
    x[3,8]    allocateEach[8]  1
    x[3,8]    findWorstP[1,3]  -1.0135310280470736e-01
    x[3,8]    findWorstP[2,3]  -2.3222208999880995e-02
    x[3,8]    findWorstP[3,1]  4.2604175843538004e-02
    x[3,8]    findWorstP[3,2]  4.2604175843538004e-02
    x[3,9]    allocateEach[9]  1
    x[3,9]    findWorstP[1,3]  -6.8782725905956757e-02
    x[3,9]    findWorstP[2,3]  -7.9169712527412742e-02
    x[3,9]    findWorstP[3,1]  3.1186679587701518e-02
    x[3,9]    findWorstP[3,2]  3.1186679587701518e-02
    x[3,10]   allocateEach[10]  1
    x[3,10]   findWorstP[1,3]  -1.0717248172533569e-01
    x[3,10]   findWorstP[2,3]  -7.5905683151148359e-02
    x[3,10]   findWorstP[3,1]  1.6837283058761340e-01
    x[3,10]   findWorstP[3,2]  1.6837283058761340e-01
    x[3,11]   allocateEach[11]  1
    x[3,11]   findWorstP[1,3]  -4.5621857016952677e-03
    x[3,11]   findWorstP[2,3]  -7.1842646583819239e-02
    x[3,11]   findWorstP[3,1]  3.9150735618007221e-02
    x[3,11]   findWorstP[3,2]  3.9150735618007221e-02
    x[3,12]   allocateEach[12]  1
    x[3,12]   findWorstP[1,3]  -1.2295868111358807e-01
    x[3,12]   findWorstP[2,3]  -9.8702888325994928e-02
    x[3,12]   findWorstP[3,1]  8.5877896220597286e-02
    x[3,12]   findWorstP[3,2]  8.5877896220597286e-02
    x[3,13]   allocateEach[13]  1
    x[3,13]   findWorstP[1,3]  -6.8666079112447514e-02
    x[3,13]   findWorstP[2,3]  -4.9232443091987828e-02
    x[3,13]   findWorstP[3,1]  8.6723636683992592e-02
    x[3,13]   findWorstP[3,2]  8.6723636683992592e-02
    MARKER    'MARKER'                 'INTEND'
RHS
    RHS1      allocateEach[1]  1
    RHS1      allocateEach[2]  1
    RHS1      allocateEach[3]  1
    RHS1      allocateEach[4]  1
    RHS1      allocateEach[5]  1
    RHS1      allocateEach[6]  1
    RHS1      allocateEach[7]  1
    RHS1      allocateEach[8]  1
    RHS1      allocateEach[9]  1
    RHS1      allocateEach[10]  1
    RHS1      allocateEach[11]  1
    RHS1      allocateEach[12]  1
    RHS1      allocateEach[13]  1
    RHS1      allocateAllCash  1
BOUNDS
 UP BND1      z         1
 MI BND1      cashProportion[1]
 UP BND1      cashProportion[1]  1
 MI BND1      cashProportion[2]
 UP BND1      cashProportion[2]  1
 MI BND1      cashProportion[3]
 UP BND1      cashProportion[3]  1
 BV BND1      x[1,1]  
 BV BND1      x[1,2]  
 BV BND1      x[1,3]  
 BV BND1      x[1,4]  
 BV BND1      x[1,5]  
 BV BND1      x[1,6]  
 BV BND1      x[1,7]  
 BV BND1      x[1,8]  
 BV BND1      x[1,9]  
 BV BND1      x[1,10] 
 BV BND1      x[1,11] 
 BV BND1      x[1,12] 
 BV BND1      x[1,13] 
 BV BND1      x[2,1]  
 BV BND1      x[2,2]  
 BV BND1      x[2,3]  
 BV BND1      x[2,4]  
 BV BND1      x[2,5]  
 BV BND1      x[2,6]  
 BV BND1      x[2,7]  
 BV BND1      x[2,8]  
 BV BND1      x[2,9]  
 BV BND1      x[2,10] 
 BV BND1      x[2,11] 
 BV BND1      x[2,12] 
 BV BND1      x[2,13] 
 BV BND1      x[3,1]  
 BV BND1      x[3,2]  
 BV BND1      x[3,3]  
 BV BND1      x[3,4]  
 BV BND1      x[3,5]  
 BV BND1      x[3,6]  
 BV BND1      x[3,7]  
 BV BND1      x[3,8]  
 BV BND1      x[3,9]  
 BV BND1      x[3,10] 
 BV BND1      x[3,11] 
 BV BND1      x[3,12] 
 BV BND1      x[3,13] 
ENDATA
